noecp
mp2
 $CONTRL SCFTYP=RHF RUNTYP=OPTIMIZE EXETYP=RUN MPLEVL=2 MAXIT=200 MULT=1
 $CONTRL SCFTYP=ROHF RUNTYP=OPTIMIZE EXETYP=RUN MPLEVL=2 MAXIT=200 MULT=2
 $CONTRL SCFTYP=RHF RUNTYP=HESSIAN EXETYP=RUN MPLEVL=2 MAXIT=200 MULT=1
 $CONTRL SCFTYP=ROHF RUNTYP=HESSIAN EXETYP=RUN MPLEVL=2 MAXIT=200 MULT=2
2  3
2  4



