 $CONTRL SCFTYP=ROHF RUNTYP=OPTIMIZE EXETYP=RUN MPLEVL=2 MAXIT=200 MULT=2
 ISPHER=1 COORD=UNIQUE NOSYM=1 UNITS=ANGS PP=READ $END
 $GUESS GUESS=HUCKEL $END
 $SYSTEM MWORDS=40 MEMDDI=20  $END
 $SCF DIRSCF=.FALSE. $END
 $DATA
 titulo
C1
Li  3  -0.15364  0.36087  -1.49407  

Li  3  1.06086  -1.40997  0.32168  

Li  3  -0.91126  1.06321  1.12289  

Li  3  2.1129  1.61835  0.20317  

Li  3  -2.10886  -1.63247  -0.15367  

 $END
 $ECP
 $END
